NAME : traveling-santa-2018-prime-paths.30361.tour
COMMENT : Length = 30361
COMMENT : Found by LKH [Keld Helsgaun] Sun Jun 12 19:59:43 2022
TYPE : TOUR
DIMENSION : 100
TOUR_SECTION
1
43
77
66
91
18
99
73
59
82
19
47
9
40
84
22
61
2
78
11
24
38
7
25
92
42
39
37
88
36
16
71
68
58
89
70
55
23
12
94
6
96
87
44
10
63
3
69
74
14
34
5
31
50
17
86
49
51
95
32
64
81
33
76
48
60
90
93
52
46
62
29
75
54
72
28
98
67
41
53
21
56
30
35
13
80
85
4
8
15
57
20
65
97
100
26
79
27
45
83
-1
EOF
